c Simple MaxSAT benchmark
c Format: WCNF with hard and soft clauses
c Hard clauses have weight 'h', soft clauses have numeric weights
p wcnf 10 25 100
h 1 2 0
h -1 3 0
h 2 -3 0
h -2 4 0
h 3 -4 0
h -3 5 0
h 4 -5 0
h -4 6 0
h 5 -6 0
h -5 7 0
1 -1 0
1 -2 0
1 -3 0
1 -4 0
1 -5 0
2 -6 0
2 -7 0
2 -8 0
2 -9 0
2 -10 0
3 1 0
3 2 0
3 3 0
3 4 0
3 5 0
